webassembly/ejemplos_dzn/8/folder8_json_39.dzn
TERM = { '.', 's(2)', 's(5)', 's(4)', 'in_1', 'local_0', 'local_1', 's(1)', 's(0)', 's(3)', 'in_0'};
null = '.';
s = 8;
n = 9;
ndeps = 2;
max_registers_sz = 4;
NR = 1;
registers = [|'local_0', 'in_1'|];
dependencies = [|'call[function_index(0)]_1', 'i32.load_4', |'i32.load_4', 'i32.store16_6'|];
GET_ENUM = { GET1, GET2, GET3, GET4, GET5};
SET_ENUM = { SET1, SET2, SET3, SET4, SET5};
TEE_ENUM = { TEE1, TEE2, TEE3, TEE4, TEE5};
N = 7;
OP = { 'call[function_index(0)]_1', 'i32.const_0', 'i32.load_4', 'i32.sub_0', 'i32.sub_1', 'i32.store16_6', 'local.get_0' };
in_ops = [1, 0, 1, 2, 2, 2, 0 ];
out_ops = [2, 1, 1, 1, 1, 0, 1 ];
in1 = ['local_1', '.', 's(5)', 's(1)', 's(3)', 's(4)', '.' ];
in2 = ['.', '.', '.', 's(0)', 's(2)', 'in_0', '.' ];
in3 = ['.', '.', '.', '.', '.', '.', '.' ];
out1 = ['s(1)', 's(5)', 's(3)', 's(2)', 's(4)', '.', 'local_1' ];
out2 = ['s(0)', '.', '.', '.', '.', '.', '.' ];
out3 = ['.', '.', '.', '.', '.', '.', '.' ];
comm = [false, false, false, false, false, false, false ];
gas = [1, 1, 1, 1, 1, 1, 1 ];
sz = [1, 1, 1, 1, 1, 1, 1 ];
stor = [true, false, false, false, false, true, false ];
lb = [ 1, 1, 1, 1, 1, 1, 1 ];
ub = [ 8, 8, 8, 8, 8, 8, 8 ];
startstack = [ 'in_0', 'in_1', null, null, null, null, null, null, null ];
endstack = [ 'in_1', null, null, null, null, null, null, null, null ];
